p edge 38 266
e 1 4
e 1 4
e 1 11
e 1 22
e 1 28
e 1 30
e 1 35
e 2 8
e 2 10
e 2 21
e 2 21
e 2 22
e 2 30
e 2 31
e 3 2
e 3 11
e 3 25
e 3 27
e 3 29
e 3 30
e 3 37
e 4 7
e 4 8
e 4 13
e 4 27
e 4 28
e 4 32
e 4 35
e 5 2
e 5 6
e 5 6
e 5 7
e 5 24
e 5 26
e 5 37
e 6 4
e 6 14
e 6 17
e 6 20
e 6 34
e 6 34
e 6 35
e 7 2
e 7 3
e 7 15
e 7 22
e 7 29
e 7 29
e 7 36
e 8 15
e 8 16
e 8 21
e 8 25
e 8 27
e 8 28
e 8 36
e 9 3
e 9 4
e 9 5
e 9 6
e 9 10
e 9 23
e 9 36
e 10 4
e 10 16
e 10 23
e 10 25
e 10 28
e 10 33
e 10 38
e 11 14
e 11 14
e 11 15
e 11 20
e 11 21
e 11 25
e 11 26
e 12 3
e 12 9
e 12 11
e 12 14
e 12 19
e 12 23
e 12 33
e 13 5
e 13 11
e 13 18
e 13 19
e 13 31
e 13 34
e 13 34
e 14 2
e 14 5
e 14 8
e 14 25
e 14 31
e 14 37
e 14 38
e 15 4
e 15 5
e 15 8
e 15 13
e 15 14
e 15 21
e 15 33
e 16 1
e 16 3
e 16 5
e 16 12
e 16 17
e 16 21
e 16 34
e 17 3
e 17 11
e 17 12
e 17 14
e 17 16
e 17 26
e 17 30
e 18 16
e 18 22
e 18 22
e 18 22
e 18 24
e 18 30
e 18 30
e 19 3
e 19 12
e 19 14
e 19 16
e 19 16
e 19 24
e 19 31
e 20 5
e 20 12
e 20 13
e 20 17
e 20 34
e 20 34
e 20 35
e 21 2
e 21 7
e 21 8
e 21 18
e 21 32
e 21 33
e 21 37
e 22 6
e 22 9
e 22 10
e 22 11
e 22 28
e 22 29
e 22 37
e 23 6
e 23 11
e 23 13
e 23 18
e 23 20
e 23 32
e 23 35
e 24 1
e 24 5
e 24 7
e 24 9
e 24 10
e 24 31
e 24 34
e 25 5
e 25 12
e 25 28
e 25 29
e 25 34
e 25 36
e 25 38
e 26 16
e 26 19
e 26 22
e 26 29
e 26 32
e 26 33
e 26 34
e 27 2
e 27 9
e 27 12
e 27 14
e 27 28
e 27 30
e 27 35
e 28 2
e 28 3
e 28 6
e 28 19
e 28 24
e 28 27
e 28 36
e 29 5
e 29 5
e 29 5
e 29 9
e 29 26
e 29 34
e 29 38
e 30 17
e 30 21
e 30 25
e 30 27
e 30 28
e 30 35
e 30 38
e 31 8
e 31 9
e 31 16
e 31 19
e 31 27
e 31 32
e 31 37
e 32 1
e 32 4
e 32 6
e 32 7
e 32 9
e 32 38
e 32 38
e 33 1
e 33 5
e 33 12
e 33 20
e 33 21
e 33 23
e 33 23
e 34 3
e 34 8
e 34 10
e 34 11
e 34 23
e 34 24
e 34 25
e 35 9
e 35 12
e 35 13
e 35 18
e 35 19
e 35 27
e 35 34
e 36 9
e 36 10
e 36 15
e 36 24
e 36 25
e 36 30
e 36 30
e 37 7
e 37 7
e 37 17
e 37 17
e 37 21
e 37 24
e 37 35
e 38 5
e 38 5
e 38 17
e 38 19
e 38 25
e 38 29
e 38 34
